c b=3,c=453
p cnf 15 47
1 3 -6 0
3 -8 0
1 2 3 -12 0
2 3 -13 0
1 3 -14 0
1 -3 6 0
1 -3 8 0
1 2 -3 12 0
1 -3 13 0
1 2 -3 14 0
2 -5 0
1 2 -7 0
1 2 -11 0
1 2 -15 0
-2 3 12 0
3 -15 0
-2 -3 -12 0
-2 -3 15 0
-2 5 0
1 -2 7 0
1 -2 11 0
1 -2 13 0
1 -2 -14 0
1 -4 0
1 -9 0
1 -10 0
-1 3 6 0
2 3 -7 0
-1 3 12 0
-1 -3 -6 0
-1 2 -3 7 0
2 -3 8 0
-1 -3 -12 0
-1 -3 15 0
2 -9 0
-1 2 11 0
-1 2 -14 0
-2 3 7 0
3 -9 0
-1 -2 -3 -7 0
-1 -2 -3 9 0
-1 -2 -8 0
-1 -2 -11 0
-1 -2 14 0
-1 4 0
-1 10 0
-1 -13 0
